Route #1: 18 45 21 30 10 2
Route #2: 23 6 22 25 19 38 32 44
Route #3: 36 7 37 3 27 9 34
Route #4: 14 17 16 41
Route #5: 15 8 20 42 4 24 29 28 47
Route #6: 12 31 5 1 43 35
Route #7: 40 39 26 11 13 46 33
cost 1272.043701171875